job_count = 10 ;
duration = [|9, 13|17, 13|23, 14|4, 10|16, 4|22, 10|22, 6|7, 6|16, 6|19, 4|] ;
machine_count = 2 ;
cost = [|31, 46|26, 46|26, 46|25, 30|16, 46|22, 28|26, 37|26, 52|18, 32|24, 51|] ;
deadline = [33, 33, 33, 33, 33, 33, 33, 33, 33, 33] ;
release = [0, 0, 0, 0, 0, 0, 0, 0, 0, 0] ;
resource = [|9, 9|1, 1|4, 4|1, 1|1, 1|6, 6|4, 4|4, 4|7, 7|7, 7|] ;
capacities = [10, 10] ;
